qbf_easy_train/easy_3706_SAT.qdimacs
p cnf 19 40
a 3 4 12 0
e 1 2 5 6 7 8 9 10 11 13 14 15 16 17 18 19 0
3 -1 0
3 2 0
1 -2 -3 0
4 -5 -6 0
-4 5 -6 0
4 5 6 0
-4 -5 6 0
8 -7 0
8 -4 0
7 4 -8 0
10 8 0
10 -9 0
-8 9 -10 0
-6 10 -11 0
6 -10 -11 0
-6 -10 11 0
6 10 11 0
-13 12 0
-13 5 0
-12 -5 13 0
14 11 0
14 -13 0
-11 13 -14 0
-15 9 0
-15 -9 0
17 15 0
17 -16 0
-15 16 -17 0
18 -14 0
18 17 0
14 -17 -18 0
-3 18 -19 0
3 -18 -19 0
-3 -18 19 0
3 18 19 0
7 -10 2 0
7 2 8 -3 4 12 -9 -5 0
-17 11 18 6 -1 -12 2 0
18 -12 11 -14 0
19 0
