sat_easy_train/easy_3706_SAT.dimacs
p cnf 96 308
-2 3 -4 0
2 -3 -4 0
-2 -3 4 0
2 3 4 0
5 1 0
5 -4 0
-1 4 -5 0
8 6 0
8 7 0
-6 -7 -8 0
10 8 0
10 -9 0
-8 9 -10 0
-12 10 0
-12 -11 0
-10 11 12 0
-15 -11 0
-15 -14 0
11 14 15 0
-16 13 0
-16 15 0
-13 -15 16 0
-9 -16 -17 0
9 16 -17 0
-9 16 17 0
9 -16 17 0
12 17 -18 0
-12 -17 -18 0
12 -17 18 0
-12 17 18 0
5 18 -19 0
-5 -18 -19 0
5 -18 19 0
-5 18 19 0
-20 16 0
-20 -9 0
-16 9 20 0
21 19 0
21 20 0
-19 -20 -21 0
-22 14 0
-22 -1 0
-14 1 22 0
23 -22 0
23 -11 0
22 11 -23 0
-25 -24 0
-25 14 0
24 -14 25 0
26 -16 0
26 -25 0
16 25 -26 0
28 -27 0
28 10 0
27 -10 -28 0
-29 -2 0
-29 -3 0
2 3 29 0
-30 28 0
-30 -29 0
-28 29 30 0
31 -7 0
31 -2 0
7 2 -31 0
-32 -12 0
-32 -4 0
12 4 32 0
-34 17 0
-34 33 0
-17 -33 34 0
35 -32 0
35 34 0
32 -34 -35 0
36 35 0
36 4 0
-35 -4 -36 0
36 -9 -37 0
-36 9 -37 0
36 9 37 0
-36 -9 37 0
-31 37 -38 0
31 -37 -38 0
-31 -37 38 0
31 37 38 0
-40 -6 0
-40 -39 0
6 39 40 0
-41 -40 0
-41 -7 0
40 7 41 0
42 -24 0
42 16 0
24 -16 -42 0
-41 42 -43 0
41 -42 -43 0
-41 -42 43 0
41 42 43 0
-44 38 0
-44 43 0
-38 -43 44 0
-45 -30 0
-45 -44 0
30 44 45 0
-46 -1 0
-46 14 0
1 -14 46 0
8 -47 -48 0
-8 47 -48 0
8 47 48 0
-8 -47 48 0
-49 48 0
-49 -3 0
-48 3 49 0
-50 46 0
-50 49 0
-46 -49 50 0
51 45 0
51 50 0
-45 -50 -51 0
26 -51 -52 0
-26 51 -52 0
26 51 52 0
-26 -51 52 0
53 -23 0
53 -52 0
23 52 -53 0
21 53 -54 0
-21 -53 -54 0
21 -53 54 0
-21 53 54 0
55 34 0
55 35 0
-34 -35 -55 0
57 56 0
57 33 0
-56 -33 -57 0
58 -55 0
58 -57 0
55 57 -58 0
59 -54 0
59 58 0
54 -58 -59 0
-60 -18 0
-60 12 0
18 -12 60 0
40 47 -61 0
-40 -47 -61 0
40 -47 61 0
-40 47 61 0
62 -61 0
62 -42 0
61 42 -62 0
63 9 0
63 -8 0
-9 8 -63 0
-63 -33 -64 0
63 33 -64 0
-63 33 64 0
63 -33 64 0
56 -1 -65 0
-56 1 -65 0
56 1 65 0
-56 -1 65 0
-64 -65 -66 0
64 65 -66 0
-64 65 66 0
64 -65 66 0
66 -10 -67 0
-66 10 -67 0
66 10 67 0
-66 -10 67 0
62 -67 -68 0
-62 67 -68 0
62 67 68 0
-62 -67 68 0
69 -13 0
69 -11 0
13 11 -69 0
-15 69 -70 0
15 -69 -70 0
-15 -69 70 0
15 69 70 0
15 -6 -71 0
-15 6 -71 0
15 6 71 0
-15 -6 71 0
-72 -18 0
-72 48 0
18 -48 72 0
-73 71 0
-73 -72 0
-71 72 73 0
74 -42 0
74 -73 0
42 73 -74 0
-75 70 0
-75 74 0
-70 -74 75 0
-68 -75 -76 0
68 75 -76 0
-68 75 76 0
68 -75 76 0
-77 60 0
-77 76 0
-60 -76 77 0
78 17 0
78 -17 0
16 -78 -79 0
-16 78 -79 0
16 78 79 0
-16 -78 79 0
17 3 -80 0
-17 -3 -80 0
17 -3 80 0
-17 3 80 0
-81 -79 0
-81 80 0
79 -80 81 0
-11 22 -82 0
11 -22 -82 0
-11 -22 82 0
11 22 82 0
4 34 -83 0
-4 -34 -83 0
4 -34 83 0
-4 34 83 0
84 16 0
84 83 0
-16 -83 -84 0
-82 -84 -85 0
82 84 -85 0
-82 84 85 0
82 -84 85 0
-86 81 0
-86 85 0
-81 -85 86 0
88 -66 0
88 -87 0
66 87 -88 0
65 3 -89 0
-65 -3 -89 0
65 -3 89 0
-65 3 89 0
90 3 0
90 8 0
-3 -8 -90 0
91 90 0
91 -47 0
-90 47 -91 0
-92 89 0
-92 91 0
-89 -91 92 0
88 92 -93 0
-88 -92 -93 0
88 -92 93 0
-88 92 93 0
-86 -93 -94 0
86 93 -94 0
-86 93 94 0
86 -93 94 0
-77 94 -95 0
77 -94 -95 0
-77 -94 95 0
77 94 95 0
96 -59 0
96 95 0
59 -95 -96 0
-46 -49 0
-22 24 48 0
-69 -94 49 -86 -50 -37 0
-45 81 86 0
-41 34 11 0
75 72 54 69 0
-73 29 0
-76 29 -48 -70 83 0
-76 40 0
75 1 -44 -73 -62 0
58 -83 0
-28 92 68 -59 -29 -19 0
-79 -52 -64 -71 -30 0
-88 55 10 93 17 -14 0
23 -37 53 78 0
70 12 -3 0
-37 -25 42 0
-11 -42 -78 38 16 -10 0
76 -92 -51 82 0
-64 43 -85 77 0
-45 -96 68 0
-51 -66 55 -26 11 -72 0
33 89 18 -75 0
25 -64 0
91 -1 30 33 0
58 -36 16 -24 0
32 66 -47 -29 54 0
51 -41 -18 0
-25 67 58 0
23 -62 -72 -61 -30 0
44 96 78 93 0
85 38 -63 0
-42 -88 56 0
-83 -9 10 -40 -76 0
88 81 -29 77 69 -85 0
56 -1 5 39 0
42 -81 0
92 77 0
59 19 -14 53 0
-22 67 0
96 0
